p cnf 196 1
196 0
w 1 0.623127
w 2 1 1
w 2 -1 0
w 3 2 0
w 3 -2 1
w 4 3 1
w 4 -3 0
w 5 4 0
w 5 -4 1
w 6 5 1
w 6 -5 0
w 7 6 0
w 7 -6 1
w 8 7 0.357238
w 8 -7 0.979038
w 9 8 0
w 9 -8 1
w 10 9 0
w 10 -9 1
w 11 10 0.192467
w 11 -10 0.0231864
w 12 11 0.0969179
w 12 -11 0.623098
w 13 12 0
w 13 -12 1
w 14 13 0
w 14 -13 1
w 15 1 0
w 15 -1 1
w 16 15 2 0
w 16 15 -2 0
w 16 -15 2 1
w 16 -15 -2 0
w 17 16 3 0
w 17 16 -3 0
w 17 -16 3 0
w 17 -16 -3 1
w 18 17 4 0
w 18 17 -4 0
w 18 -17 4 0
w 18 -17 -4 1
w 19 18 5 0
w 19 18 -5 0
w 19 -18 5 1
w 19 -18 -5 1
w 20 19 6 0
w 20 19 -6 0
w 20 -19 6 0
w 20 -19 -6 1
w 21 20 7 0.760218
w 21 20 -7 0.55896
w 21 -20 7 0.757052
w 21 -20 -7 0.788316
w 22 21 8 0.834139
w 22 21 -8 0.883015
w 22 -21 8 0.981941
w 22 -21 -8 0.212201
w 23 22 9 0.580704
w 23 22 -9 0.255535
w 23 -22 9 0.235487
w 23 -22 -9 0.00694082
w 24 23 10 0.0265755
w 24 23 -10 0.165409
w 24 -23 10 0.10634
w 24 -23 -10 0.796701
w 25 24 11 1
w 25 24 -11 1
w 25 -24 11 0
w 25 -24 -11 0
w 26 25 12 0
w 26 25 -12 1
w 26 -25 12 0
w 26 -25 -12 1
w 27 26 13 0
w 27 26 -13 1
w 27 -26 13 0
w 27 -26 -13 0
w 28 27 14 0.591496
w 28 27 -14 0.11737
w 28 -27 14 0.660289
w 28 -27 -14 0.573436
w 29 15 0
w 29 -15 1
w 30 29 16 1
w 30 29 -16 1
w 30 -29 16 1
w 30 -29 -16 0
w 31 30 17 0.32649
w 31 30 -17 0.193765
w 31 -30 17 0.711479
w 31 -30 -17 0.758873
w 32 31 18 1
w 32 31 -18 0
w 32 -31 18 0
w 32 -31 -18 1
w 33 32 19 0.604071
w 33 32 -19 0.117754
w 33 -32 19 0.00245416
w 33 -32 -19 0.0486607
w 34 33 20 0.991413
w 34 33 -20 0.0522097
w 34 -33 20 0.927164
w 34 -33 -20 0.768687
w 35 34 21 0.0445336
w 35 34 -21 0.428976
w 35 -34 21 0.217142
w 35 -34 -21 0.374105
w 36 35 22 1
w 36 35 -22 1
w 36 -35 22 0
w 36 -35 -22 1
w 37 36 23 0
w 37 36 -23 1
w 37 -36 23 0
w 37 -36 -23 0
w 38 37 24 0.589805
w 38 37 -24 0.327972
w 38 -37 24 0.517945
w 38 -37 -24 0.747064
w 39 38 25 1
w 39 38 -25 0
w 39 -38 25 1
w 39 -38 -25 1
w 40 39 26 1
w 40 39 -26 0
w 40 -39 26 0
w 40 -39 -26 1
w 41 40 27 1
w 41 40 -27 0
w 41 -40 27 1
w 41 -40 -27 0
w 42 41 28 0.56488
w 42 41 -28 0.684135
w 42 -41 28 0.562948
w 42 -41 -28 0.534773
w 43 29 0
w 43 -29 1
w 44 43 30 0
w 44 43 -30 0
w 44 -43 30 1
w 44 -43 -30 1
w 45 44 31 1
w 45 44 -31 1
w 45 -44 31 0
w 45 -44 -31 0
w 46 45 32 0.537989
w 46 45 -32 0.453816
w 46 -45 32 0.796795
w 46 -45 -32 0.937785
w 47 46 33 0.0823202
w 47 46 -33 0.389792
w 47 -46 33 0.896849
w 47 -46 -33 0.136533
w 48 47 34 0
w 48 47 -34 0
w 48 -47 34 0
w 48 -47 -34 1
w 49 48 35 0
w 49 48 -35 1
w 49 -48 35 1
w 49 -48 -35 0
w 50 49 36 0.138819
w 50 49 -36 0.774341
w 50 -49 36 0.752734
w 50 -49 -36 0.154413
w 51 50 37 1
w 51 50 -37 1
w 51 -50 37 0
w 51 -50 -37 1
w 52 51 38 1
w 52 51 -38 1
w 52 -51 38 1
w 52 -51 -38 0
w 53 52 39 0.0602385
w 53 52 -39 0.244943
w 53 -52 39 0.400209
w 53 -52 -39 0.196771
w 54 53 40 0.52669
w 54 53 -40 0.816493
w 54 -53 40 0.528802
w 54 -53 -40 0.256908
w 55 54 41 1
w 55 54 -41 0
w 55 -54 41 0
w 55 -54 -41 1
w 56 55 42 0
w 56 55 -42 0
w 56 -55 42 1
w 56 -55 -42 0
w 57 43 0.398082
w 57 -43 0.511681
w 58 57 44 0.777459
w 58 57 -44 0.849474
w 58 -57 44 0.811609
w 58 -57 -44 0.694824
w 59 58 45 0.789527
w 59 58 -45 0.549975
w 59 -58 45 0.144443
w 59 -58 -45 0.849766
w 60 59 46 0.544651
w 60 59 -46 0.0465371
w 60 -59 46 0.525364
w 60 -59 -46 0.0713412
w 61 60 47 0.0541658
w 61 60 -47 0.328249
w 61 -60 47 0.864125
w 61 -60 -47 0.0654597
w 62 61 48 0.584595
w 62 61 -48 0.775743
w 62 -61 48 0.331148
w 62 -61 -48 0.443883
w 63 62 49 0
w 63 62 -49 0
w 63 -62 49 1
w 63 -62 -49 0
w 64 63 50 0.842898
w 64 63 -50 0.712247
w 64 -63 50 0.81874
w 64 -63 -50 0.654507
w 65 64 51 1
w 65 64 -51 1
w 65 -64 51 0
w 65 -64 -51 1
w 66 65 52 1
w 66 65 -52 0
w 66 -65 52 0
w 66 -65 -52 0
w 67 66 53 1
w 67 66 -53 1
w 67 -66 53 0
w 67 -66 -53 1
w 68 67 54 0
w 68 67 -54 0
w 68 -67 54 1
w 68 -67 -54 1
w 69 68 55 1
w 69 68 -55 0
w 69 -68 55 1
w 69 -68 -55 1
w 70 69 56 1
w 70 69 -56 1
w 70 -69 56 1
w 70 -69 -56 0
w 71 57 0.586916
w 71 -57 0.305839
w 72 71 58 0
w 72 71 -58 1
w 72 -71 58 0
w 72 -71 -58 0
w 73 72 59 0
w 73 72 -59 1
w 73 -72 59 0
w 73 -72 -59 0
w 74 73 60 1
w 74 73 -60 0
w 74 -73 60 0
w 74 -73 -60 1
w 75 74 61 0.239969
w 75 74 -61 0.669342
w 75 -74 61 0.802828
w 75 -74 -61 0.793524
w 76 75 62 0
w 76 75 -62 0
w 76 -75 62 1
w 76 -75 -62 1
w 77 76 63 0.946078
w 77 76 -63 0.322815
w 77 -76 63 0.459289
w 77 -76 -63 0.532994
w 78 77 64 0.864938
w 78 77 -64 0.41371
w 78 -77 64 0.686457
w 78 -77 -64 0.419505
w 79 78 65 0.021589
w 79 78 -65 0.19433
w 79 -78 65 0.059184
w 79 -78 -65 0.688215
w 80 79 66 0.551096
w 80 79 -66 0.751794
w 80 -79 66 0.267827
w 80 -79 -66 0.695095
w 81 80 67 0.77597
w 81 80 -67 0.935064
w 81 -80 67 0.657412
w 81 -80 -67 0.578798
w 82 81 68 0.972232
w 82 81 -68 0.6111
w 82 -81 68 0.0449319
w 82 -81 -68 0.775427
w 83 82 69 0.702837
w 83 82 -69 0.721505
w 83 -82 69 0.907938
w 83 -82 -69 0.162125
w 84 83 70 0
w 84 83 -70 1
w 84 -83 70 0
w 84 -83 -70 0
w 85 71 1
w 85 -71 0
w 86 85 72 0
w 86 85 -72 1
w 86 -85 72 0
w 86 -85 -72 1
w 87 86 73 0.684647
w 87 86 -73 0.426389
w 87 -86 73 0.608348
w 87 -86 -73 0.672717
w 88 87 74 0
w 88 87 -74 1
w 88 -87 74 1
w 88 -87 -74 1
w 89 88 75 1
w 89 88 -75 1
w 89 -88 75 0
w 89 -88 -75 0
w 90 89 76 0
w 90 89 -76 0
w 90 -89 76 1
w 90 -89 -76 1
w 91 90 77 0
w 91 90 -77 1
w 91 -90 77 1
w 91 -90 -77 1
w 92 91 78 0
w 92 91 -78 1
w 92 -91 78 0
w 92 -91 -78 1
w 93 92 79 0
w 93 92 -79 1
w 93 -92 79 0
w 93 -92 -79 0
w 94 93 80 1
w 94 93 -80 1
w 94 -93 80 0
w 94 -93 -80 0
w 95 94 81 0.812308
w 95 94 -81 0.257151
w 95 -94 81 0.0410759
w 95 -94 -81 0.890096
w 96 95 82 0
w 96 95 -82 0
w 96 -95 82 1
w 96 -95 -82 1
w 97 96 83 0.541764
w 97 96 -83 0.451696
w 97 -96 83 0.465182
w 97 -96 -83 0.186726
w 98 97 84 0
w 98 97 -84 1
w 98 -97 84 1
w 98 -97 -84 0
w 99 85 0.858634
w 99 -85 0.177669
w 100 99 86 0
w 100 99 -86 0
w 100 -99 86 1
w 100 -99 -86 1
w 101 100 87 0.0956457
w 101 100 -87 0.688637
w 101 -100 87 0.262689
w 101 -100 -87 0.907954
w 102 101 88 0.303765
w 102 101 -88 0.79805
w 102 -101 88 0.180319
w 102 -101 -88 0.364609
w 103 102 89 1
w 103 102 -89 0
w 103 -102 89 0
w 103 -102 -89 1
w 104 103 90 1
w 104 103 -90 0
w 104 -103 90 0
w 104 -103 -90 1
w 105 104 91 0
w 105 104 -91 1
w 105 -104 91 0
w 105 -104 -91 0
w 106 105 92 0
w 106 105 -92 0
w 106 -105 92 0
w 106 -105 -92 1
w 107 106 93 0.86586
w 107 106 -93 0.0909913
w 107 -106 93 0.680937
w 107 -106 -93 0.128549
w 108 107 94 0.626725
w 108 107 -94 0.432314
w 108 -107 94 0.796995
w 108 -107 -94 0.807044
w 109 108 95 0.284435
w 109 108 -95 0.107215
w 109 -108 95 0.404271
w 109 -108 -95 0.515056
w 110 109 96 0.463315
w 110 109 -96 0.210859
w 110 -109 96 0.977809
w 110 -109 -96 0.629581
w 111 110 97 1
w 111 110 -97 0
w 111 -110 97 1
w 111 -110 -97 1
w 112 111 98 0.496209
w 112 111 -98 0.796597
w 112 -111 98 0.02829
w 112 -111 -98 0.491554
w 113 99 0.89415
w 113 -99 0.582546
w 114 113 100 1
w 114 113 -100 1
w 114 -113 100 0
w 114 -113 -100 0
w 115 114 101 0
w 115 114 -101 1
w 115 -114 101 0
w 115 -114 -101 0
w 116 115 102 0.177977
w 116 115 -102 0.959967
w 116 -115 102 0.119523
w 116 -115 -102 0.388836
w 117 116 103 0.749104
w 117 116 -103 0.785653
w 117 -116 103 0.0205724
w 117 -116 -103 0.948599
w 118 117 104 1
w 118 117 -104 1
w 118 -117 104 1
w 118 -117 -104 0
w 119 118 105 0
w 119 118 -105 1
w 119 -118 105 1
w 119 -118 -105 0
w 120 119 106 0.631968
w 120 119 -106 0.891828
w 120 -119 106 0.258934
w 120 -119 -106 0.728526
w 121 120 107 1
w 121 120 -107 0
w 121 -120 107 1
w 121 -120 -107 1
w 122 121 108 0.254985
w 122 121 -108 0.478318
w 122 -121 108 0.602914
w 122 -121 -108 0.374508
w 123 122 109 0.540691
w 123 122 -109 0.123612
w 123 -122 109 0.652806
w 123 -122 -109 0.561263
w 124 123 110 1
w 124 123 -110 0
w 124 -123 110 0
w 124 -123 -110 1
w 125 124 111 1
w 125 124 -111 1
w 125 -124 111 0
w 125 -124 -111 0
w 126 125 112 0.0440806
w 126 125 -112 0.816188
w 126 -125 112 0.581145
w 126 -125 -112 0.303014
w 127 113 0.927986
w 127 -113 0.940434
w 128 127 114 1
w 128 127 -114 0
w 128 -127 114 0
w 128 -127 -114 0
w 129 128 115 0.422705
w 129 128 -115 0.156256
w 129 -128 115 0.586246
w 129 -128 -115 0.963396
w 130 129 116 1
w 130 129 -116 1
w 130 -129 116 1
w 130 -129 -116 0
w 131 130 117 1
w 131 130 -117 1
w 131 -130 117 0
w 131 -130 -117 0
w 132 131 118 0.831436
w 132 131 -118 0.207238
w 132 -131 118 0.492286
w 132 -131 -118 0.875517
w 133 132 119 0
w 133 132 -119 1
w 133 -132 119 0
w 133 -132 -119 0
w 134 133 120 0.528181
w 134 133 -120 0.35974
w 134 -133 120 0.564776
w 134 -133 -120 0.309929
w 135 134 121 0
w 135 134 -121 1
w 135 -134 121 1
w 135 -134 -121 0
w 136 135 122 0.90413
w 136 135 -122 0.475537
w 136 -135 122 0.0981331
w 136 -135 -122 0.0417019
w 137 136 123 0.0990636
w 137 136 -123 0.0244826
w 137 -136 123 0.133393
w 137 -136 -123 0.122081
w 138 137 124 0.964829
w 138 137 -124 0.32932
w 138 -137 124 0.319738
w 138 -137 -124 0.840346
w 139 138 125 0
w 139 138 -125 1
w 139 -138 125 0
w 139 -138 -125 1
w 140 139 126 0
w 140 139 -126 1
w 140 -139 126 1
w 140 -139 -126 1
w 141 127 0
w 141 -127 1
w 142 141 128 0
w 142 141 -128 0
w 142 -141 128 1
w 142 -141 -128 0
w 143 142 129 0
w 143 142 -129 0
w 143 -142 129 1
w 143 -142 -129 0
w 144 143 130 0.211806
w 144 143 -130 0.446532
w 144 -143 130 0.764213
w 144 -143 -130 0.0392574
w 145 144 131 1
w 145 144 -131 1
w 145 -144 131 0
w 145 -144 -131 1
w 146 145 132 0.270584
w 146 145 -132 0.367166
w 146 -145 132 0.14675
w 146 -145 -132 0.408425
w 147 146 133 0
w 147 146 -133 1
w 147 -146 133 1
w 147 -146 -133 1
w 148 147 134 0
w 148 147 -134 0
w 148 -147 134 0
w 148 -147 -134 1
w 149 148 135 0
w 149 148 -135 1
w 149 -148 135 0
w 149 -148 -135 0
w 150 149 136 0.631232
w 150 149 -136 0.268662
w 150 -149 136 0.0550357
w 150 -149 -136 0.395445
w 151 150 137 0
w 151 150 -137 1
w 151 -150 137 0
w 151 -150 -137 0
w 152 151 138 0.419079
w 152 151 -138 0.988688
w 152 -151 138 0.302424
w 152 -151 -138 0.565829
w 153 152 139 1
w 153 152 -139 1
w 153 -152 139 1
w 153 -152 -139 0
w 154 153 140 0.78554
w 154 153 -140 0.0809621
w 154 -153 140 0.938657
w 154 -153 -140 0.509451
w 155 141 0.384689
w 155 -141 0.378984
w 156 155 142 0
w 156 155 -142 1
w 156 -155 142 0
w 156 -155 -142 1
w 157 156 143 0.690687
w 157 156 -143 0.400466
w 157 -156 143 0.0124216
w 157 -156 -143 0.157084
w 158 157 144 0.679336
w 158 157 -144 0.875188
w 158 -157 144 0.824702
w 158 -157 -144 0.0984148
w 159 158 145 0.127126
w 159 158 -145 0.664244
w 159 -158 145 0.260989
w 159 -158 -145 0.462587
w 160 159 146 1
w 160 159 -146 0
w 160 -159 146 1
w 160 -159 -146 0
w 161 160 147 0
w 161 160 -147 1
w 161 -160 147 0
w 161 -160 -147 0
w 162 161 148 0
w 162 161 -148 0
w 162 -161 148 0
w 162 -161 -148 1
w 163 162 149 1
w 163 162 -149 1
w 163 -162 149 0
w 163 -162 -149 0
w 164 163 150 1
w 164 163 -150 1
w 164 -163 150 0
w 164 -163 -150 0
w 165 164 151 0
w 165 164 -151 1
w 165 -164 151 0
w 165 -164 -151 1
w 166 165 152 1
w 166 165 -152 1
w 166 -165 152 0
w 166 -165 -152 1
w 167 166 153 0.157963
w 167 166 -153 0.722546
w 167 -166 153 0.105891
w 167 -166 -153 0.396046
w 168 167 154 0.0401774
w 168 167 -154 0.0699691
w 168 -167 154 0.161454
w 168 -167 -154 0.979485
w 169 155 0
w 169 -155 1
w 170 169 156 0
w 170 169 -156 1
w 170 -169 156 0
w 170 -169 -156 1
w 171 170 157 0
w 171 170 -157 1
w 171 -170 157 0
w 171 -170 -157 0
w 172 171 158 0.543932
w 172 171 -158 0.427076
w 172 -171 158 0.043295
w 172 -171 -158 0.493146
w 173 172 159 0
w 173 172 -159 0
w 173 -172 159 1
w 173 -172 -159 0
w 174 173 160 0.703055
w 174 173 -160 0.0641622
w 174 -173 160 0.346018
w 174 -173 -160 0.327228
w 175 174 161 1
w 175 174 -161 0
w 175 -174 161 0
w 175 -174 -161 1
w 176 175 162 0.403083
w 176 175 -162 0.703622
w 176 -175 162 0.652575
w 176 -175 -162 0.951559
w 177 176 163 0.687287
w 177 176 -163 0.553956
w 177 -176 163 0.691068
w 177 -176 -163 0.846114
w 178 177 164 1
w 178 177 -164 1
w 178 -177 164 0
w 178 -177 -164 0
w 179 178 165 0.896918
w 179 178 -165 0.0581043
w 179 -178 165 0.675202
w 179 -178 -165 0.877427
w 180 179 166 0
w 180 179 -166 1
w 180 -179 166 1
w 180 -179 -166 1
w 181 180 167 0.184878
w 181 180 -167 0.38718
w 181 -180 167 0.396392
w 181 -180 -167 0.268702
w 182 181 168 0
w 182 181 -168 0
w 182 -181 168 1
w 182 -181 -168 0
w 183 169 0.568231
w 183 -169 0.614356
w 184 183 170 0
w 184 183 -170 1
w 184 -183 170 0
w 184 -183 -170 1
w 185 184 171 0.279172
w 185 184 -171 0.506454
w 185 -184 171 0.733708
w 185 -184 -171 0.176089
w 186 185 172 0.40891
w 186 185 -172 0.0535161
w 186 -185 172 0.580935
w 186 -185 -172 0.0340846
w 187 186 173 0.661473
w 187 186 -173 0.00527729
w 187 -186 173 0.541707
w 187 -186 -173 0.84635
w 188 187 174 1
w 188 187 -174 0
w 188 -187 174 1
w 188 -187 -174 1
w 189 188 175 0.599204
w 189 188 -175 0.139663
w 189 -188 175 0.410181
w 189 -188 -175 0.167434
w 190 189 176 0.58748
w 190 189 -176 0.426733
w 190 -189 176 0.21449
w 190 -189 -176 0.102178
w 191 190 177 0
w 191 190 -177 1
w 191 -190 177 0
w 191 -190 -177 0
w 192 191 178 0.358975
w 192 191 -178 0.207624
w 192 -191 178 0.610956
w 192 -191 -178 0.939909
w 193 192 179 1
w 193 192 -179 0
w 193 -192 179 0
w 193 -192 -179 1
w 194 193 180 1
w 194 193 -180 1
w 194 -193 180 0
w 194 -193 -180 0
w 195 194 181 0.349621
w 195 194 -181 0.882667
w 195 -194 181 0.0770165
w 195 -194 -181 0.759801
w 196 195 182 0
w 196 195 -182 1
w 196 -195 182 1
w 196 -195 -182 1